Route #1: 28 13 2 15 32 37 1
Route #2: 39 5 41 22 8 21 12 6 40 42
Route #3: 4 33 19 26 25 11 29 16 43
Route #4: 30 23 17 10 24 35 20 38 31 3
Route #5: 36 18 44 14 27 34 7 9
Cost 751
Time 0.063876
Tempo = 0.07307689997833222